T = 150;
V = 10;
Q = 15;
L = 5;
C = 3;
P = 10;
time = [|  0, 29,  0, 30, 26,  0, 26, 29, 20, 29, 20, 20, 26, 26,  0, 20, 29, 20,  0, 26, 18, 18, 18, 18, 18, 18, 18, 18, 18, 18, 18, 18, 18, 18, 18, 18, 18, 18, 18, 18,
        | 29,  0, 29, 25, 13, 29, 13,  0, 11,  0, 11, 11, 13, 13, 29, 11,  0, 11, 29, 13, 14, 14, 14, 14, 14, 14, 14, 14, 14, 14, 14, 14, 14, 14, 14, 14, 14, 14, 14, 14,
        |  0, 29,  0, 30, 26,  0, 26, 29, 20, 29, 20, 20, 26, 26,  0, 20, 29, 20,  0, 26, 18, 18, 18, 18, 18, 18, 18, 18, 18, 18, 18, 18, 18, 18, 18, 18, 18, 18, 18, 18,
        | 30, 25, 30,  0, 34, 30, 34, 25, 29, 25, 29, 29, 34, 34, 30, 29, 25, 29, 30, 34, 17, 17, 17, 17, 17, 17, 17, 17, 17, 17, 17, 17, 17, 17, 17, 17, 17, 17, 17, 17,
        | 26, 13, 26, 34,  0, 26,  0, 13,  7, 13,  7,  7,  0,  0, 26,  7, 13,  7, 26,  0, 19, 19, 19, 19, 19, 19, 19, 19, 19, 19, 19, 19, 19, 19, 19, 19, 19, 19, 19, 19,
        |  0, 29,  0, 30, 26,  0, 26, 29, 20, 29, 20, 20, 26, 26,  0, 20, 29, 20,  0, 26, 18, 18, 18, 18, 18, 18, 18, 18, 18, 18, 18, 18, 18, 18, 18, 18, 18, 18, 18, 18,
        | 26, 13, 26, 34,  0, 26,  0, 13,  7, 13,  7,  7,  0,  0, 26,  7, 13,  7, 26,  0, 19, 19, 19, 19, 19, 19, 19, 19, 19, 19, 19, 19, 19, 19, 19, 19, 19, 19, 19, 19,
        | 29,  0, 29, 25, 13, 29, 13,  0, 11,  0, 11, 11, 13, 13, 29, 11,  0, 11, 29, 13, 14, 14, 14, 14, 14, 14, 14, 14, 14, 14, 14, 14, 14, 14, 14, 14, 14, 14, 14, 14,
        | 20, 11, 20, 29,  7, 20,  7, 11,  0, 11,  0,  0,  7,  7, 20,  0, 11,  0, 20,  7, 13, 13, 13, 13, 13, 13, 13, 13, 13, 13, 13, 13, 13, 13, 13, 13, 13, 13, 13, 13,
        | 29,  0, 29, 25, 13, 29, 13,  0, 11,  0, 11, 11, 13, 13, 29, 11,  0, 11, 29, 13, 14, 14, 14, 14, 14, 14, 14, 14, 14, 14, 14, 14, 14, 14, 14, 14, 14, 14, 14, 14,
        | 20, 11, 20, 29,  7, 20,  7, 11,  0, 11,  0,  0,  7,  7, 20,  0, 11,  0, 20,  7, 13, 13, 13, 13, 13, 13, 13, 13, 13, 13, 13, 13, 13, 13, 13, 13, 13, 13, 13, 13,
        | 20, 11, 20, 29,  7, 20,  7, 11,  0, 11,  0,  0,  7,  7, 20,  0, 11,  0, 20,  7, 13, 13, 13, 13, 13, 13, 13, 13, 13, 13, 13, 13, 13, 13, 13, 13, 13, 13, 13, 13,
        | 26, 13, 26, 34,  0, 26,  0, 13,  7, 13,  7,  7,  0,  0, 26,  7, 13,  7, 26,  0, 19, 19, 19, 19, 19, 19, 19, 19, 19, 19, 19, 19, 19, 19, 19, 19, 19, 19, 19, 19,
        | 26, 13, 26, 34,  0, 26,  0, 13,  7, 13,  7,  7,  0,  0, 26,  7, 13,  7, 26,  0, 19, 19, 19, 19, 19, 19, 19, 19, 19, 19, 19, 19, 19, 19, 19, 19, 19, 19, 19, 19,
        |  0, 29,  0, 30, 26,  0, 26, 29, 20, 29, 20, 20, 26, 26,  0, 20, 29, 20,  0, 26, 18, 18, 18, 18, 18, 18, 18, 18, 18, 18, 18, 18, 18, 18, 18, 18, 18, 18, 18, 18,
        | 20, 11, 20, 29,  7, 20,  7, 11,  0, 11,  0,  0,  7,  7, 20,  0, 11,  0, 20,  7, 13, 13, 13, 13, 13, 13, 13, 13, 13, 13, 13, 13, 13, 13, 13, 13, 13, 13, 13, 13,
        | 29,  0, 29, 25, 13, 29, 13,  0, 11,  0, 11, 11, 13, 13, 29, 11,  0, 11, 29, 13, 14, 14, 14, 14, 14, 14, 14, 14, 14, 14, 14, 14, 14, 14, 14, 14, 14, 14, 14, 14,
        | 20, 11, 20, 29,  7, 20,  7, 11,  0, 11,  0,  0,  7,  7, 20,  0, 11,  0, 20,  7, 13, 13, 13, 13, 13, 13, 13, 13, 13, 13, 13, 13, 13, 13, 13, 13, 13, 13, 13, 13,
        |  0, 29,  0, 30, 26,  0, 26, 29, 20, 29, 20, 20, 26, 26,  0, 20, 29, 20,  0, 26, 18, 18, 18, 18, 18, 18, 18, 18, 18, 18, 18, 18, 18, 18, 18, 18, 18, 18, 18, 18,
        | 26, 13, 26, 34,  0, 26,  0, 13,  7, 13,  7,  7,  0,  0, 26,  7, 13,  7, 26,  0, 19, 19, 19, 19, 19, 19, 19, 19, 19, 19, 19, 19, 19, 19, 19, 19, 19, 19, 19, 19,
        | 18, 14, 18, 17, 19, 18, 19, 14, 13, 14, 13, 13, 19, 19, 18, 13, 14, 13, 18, 19,  0,  0,  0,  0,  0,  0,  0,  0,  0,  0,  0,  0,  0,  0,  0,  0,  0,  0,  0,  0,
        | 18, 14, 18, 17, 19, 18, 19, 14, 13, 14, 13, 13, 19, 19, 18, 13, 14, 13, 18, 19,  0,  0,  0,  0,  0,  0,  0,  0,  0,  0,  0,  0,  0,  0,  0,  0,  0,  0,  0,  0,
        | 18, 14, 18, 17, 19, 18, 19, 14, 13, 14, 13, 13, 19, 19, 18, 13, 14, 13, 18, 19,  0,  0,  0,  0,  0,  0,  0,  0,  0,  0,  0,  0,  0,  0,  0,  0,  0,  0,  0,  0,
        | 18, 14, 18, 17, 19, 18, 19, 14, 13, 14, 13, 13, 19, 19, 18, 13, 14, 13, 18, 19,  0,  0,  0,  0,  0,  0,  0,  0,  0,  0,  0,  0,  0,  0,  0,  0,  0,  0,  0,  0,
        | 18, 14, 18, 17, 19, 18, 19, 14, 13, 14, 13, 13, 19, 19, 18, 13, 14, 13, 18, 19,  0,  0,  0,  0,  0,  0,  0,  0,  0,  0,  0,  0,  0,  0,  0,  0,  0,  0,  0,  0,
        | 18, 14, 18, 17, 19, 18, 19, 14, 13, 14, 13, 13, 19, 19, 18, 13, 14, 13, 18, 19,  0,  0,  0,  0,  0,  0,  0,  0,  0,  0,  0,  0,  0,  0,  0,  0,  0,  0,  0,  0,
        | 18, 14, 18, 17, 19, 18, 19, 14, 13, 14, 13, 13, 19, 19, 18, 13, 14, 13, 18, 19,  0,  0,  0,  0,  0,  0,  0,  0,  0,  0,  0,  0,  0,  0,  0,  0,  0,  0,  0,  0,
        | 18, 14, 18, 17, 19, 18, 19, 14, 13, 14, 13, 13, 19, 19, 18, 13, 14, 13, 18, 19,  0,  0,  0,  0,  0,  0,  0,  0,  0,  0,  0,  0,  0,  0,  0,  0,  0,  0,  0,  0,
        | 18, 14, 18, 17, 19, 18, 19, 14, 13, 14, 13, 13, 19, 19, 18, 13, 14, 13, 18, 19,  0,  0,  0,  0,  0,  0,  0,  0,  0,  0,  0,  0,  0,  0,  0,  0,  0,  0,  0,  0,
        | 18, 14, 18, 17, 19, 18, 19, 14, 13, 14, 13, 13, 19, 19, 18, 13, 14, 13, 18, 19,  0,  0,  0,  0,  0,  0,  0,  0,  0,  0,  0,  0,  0,  0,  0,  0,  0,  0,  0,  0,
        | 18, 14, 18, 17, 19, 18, 19, 14, 13, 14, 13, 13, 19, 19, 18, 13, 14, 13, 18, 19,  0,  0,  0,  0,  0,  0,  0,  0,  0,  0,  0,  0,  0,  0,  0,  0,  0,  0,  0,  0,
        | 18, 14, 18, 17, 19, 18, 19, 14, 13, 14, 13, 13, 19, 19, 18, 13, 14, 13, 18, 19,  0,  0,  0,  0,  0,  0,  0,  0,  0,  0,  0,  0,  0,  0,  0,  0,  0,  0,  0,  0,
        | 18, 14, 18, 17, 19, 18, 19, 14, 13, 14, 13, 13, 19, 19, 18, 13, 14, 13, 18, 19,  0,  0,  0,  0,  0,  0,  0,  0,  0,  0,  0,  0,  0,  0,  0,  0,  0,  0,  0,  0,
        | 18, 14, 18, 17, 19, 18, 19, 14, 13, 14, 13, 13, 19, 19, 18, 13, 14, 13, 18, 19,  0,  0,  0,  0,  0,  0,  0,  0,  0,  0,  0,  0,  0,  0,  0,  0,  0,  0,  0,  0,
        | 18, 14, 18, 17, 19, 18, 19, 14, 13, 14, 13, 13, 19, 19, 18, 13, 14, 13, 18, 19,  0,  0,  0,  0,  0,  0,  0,  0,  0,  0,  0,  0,  0,  0,  0,  0,  0,  0,  0,  0,
        | 18, 14, 18, 17, 19, 18, 19, 14, 13, 14, 13, 13, 19, 19, 18, 13, 14, 13, 18, 19,  0,  0,  0,  0,  0,  0,  0,  0,  0,  0,  0,  0,  0,  0,  0,  0,  0,  0,  0,  0,
        | 18, 14, 18, 17, 19, 18, 19, 14, 13, 14, 13, 13, 19, 19, 18, 13, 14, 13, 18, 19,  0,  0,  0,  0,  0,  0,  0,  0,  0,  0,  0,  0,  0,  0,  0,  0,  0,  0,  0,  0,
        | 18, 14, 18, 17, 19, 18, 19, 14, 13, 14, 13, 13, 19, 19, 18, 13, 14, 13, 18, 19,  0,  0,  0,  0,  0,  0,  0,  0,  0,  0,  0,  0,  0,  0,  0,  0,  0,  0,  0,  0,
        | 18, 14, 18, 17, 19, 18, 19, 14, 13, 14, 13, 13, 19, 19, 18, 13, 14, 13, 18, 19,  0,  0,  0,  0,  0,  0,  0,  0,  0,  0,  0,  0,  0,  0,  0,  0,  0,  0,  0,  0,
        | 18, 14, 18, 17, 19, 18, 19, 14, 13, 14, 13, 13, 19, 19, 18, 13, 14, 13, 18, 19,  0,  0,  0,  0,  0,  0,  0,  0,  0,  0,  0,  0,  0,  0,  0,  0,  0,  0,  0,  0|];
l =     [  2,  4,  2,  3,  5,  2,  5,  4,  1,  4,  1,  1,  5,  5,  2,  1,  4,  1,  2,  5];
a =     [ 18, 16, 18, 17, 19, 28, 47, 14, 14, 14, 54, 45, 54, 61, 55, 59, 75, 43, 45, 38];
b =     [ 48, 54, 46, 43, 48, 51, 78, 41, 38, 53, 94,111,111,101,110,102,117,109, 97, 85];
s =     [ 16, 18, 10, 10, 10, 11, 15, 18, 11, 11, 16, 18, 10, 10, 10, 11, 15, 18, 11, 11];
q =     [  3,  4,  2,  2,  4,  3,  1,  3,  1,  2, -3, -4, -2, -2, -4, -3, -1, -3, -1, -2];
